\ENCODING=ISO-8859-1
\Problem name: 

Minimize
 obj1: y0
Subject To
 c0:      y0 - 17 q_00 - 2 q_01 - 82 q_02 - 40 q_03 - 60 q_04 - 21 q_05
          - 84 q_06 - 76 q_07 - 44 q_08 - 18 q_09 - 78 q_10 - 17 q_11 - 73 q_12
          - 15 q_13 - q_14 - 66 q_15 - 58 q_16 - 62 q_17 - 46 q_18 - 21 q_19
          - 52 q_20 - 58 q_21 - 57 q_22 - 54 q_23 - 79 q_24 - 87 q_25 - 14 q_26
          - 11 q_27 - 47 q_28 - 37 q_29 - q_30 - 99 q_31 - 20 q_32 - 54 q_33
          - 65 q_34 - 69 q_35 - 95 q_36 - 14 q_37 - 46 q_38 - 70 q_39 - 9 q_40
          - 63 q_41 - 97 q_42 - 12 q_43 - 58 q_44 - 7 q_45 - 82 q_46 - 58 q_47
          - 26 q_48 - 25 q_49 - 9 q_50 - 37 q_51 - 23 q_52 - 22 q_53 - 8 q_54
          - 17 q_55 - 62 q_56 - 8 q_57 - 97 q_58 - 69 q_59 - 25 q_60 - 82 q_61
          - 11 q_62 - 63 q_63 - 24 q_64 - q_65 - 56 q_66 - 14 q_67 - 88 q_68
          - 14 q_69 - 51 q_70 - 13 q_71 - 30 q_72 - 17 q_73 - 7 q_74 - 55 q_75
          - 33 q_76 - 99 q_77 - 4 q_78 - 40 q_79 - 47 q_80 - 43 q_81 - 19 q_82
          - 52 q_83 - 24 q_84 - 61 q_85 - 83 q_86 - 68 q_87 - 5 q_88 - 60 q_89
          - 46 q_90 - 68 q_91 - 90 q_92 - 32 q_93 - 87 q_94 - 45 q_95 - 37 q_96
          - 95 q_97 - 88 q_98 - 64 q_99 - 34 q_100 - 9 q_101 - 11 q_102
          - 86 q_103 - 23 q_104 - 58 q_105 - 53 q_106 - 74 q_107 - 79 q_108
          - 99 q_109 - 43 q_110 - 66 q_111 - 49 q_112 - 96 q_113 - 28 q_114
          - 100 q_115 - 2 q_116 - 6 q_117 - 45 q_118 - 53 q_119  = 0
 c51:     - 53 q_00 - 33 q_01 - 3 q_02 - 63 q_03 - 4 q_04 - 35 q_05 - 78 q_06
          - 53 q_07 - 9 q_08 - 42 q_09 - 17 q_10 - 45 q_11 - 80 q_12 - 20 q_13
          - 95 q_14 - 60 q_15 - 78 q_16 - 64 q_17 - 56 q_18 - 44 q_19 - 58 q_20
          - 19 q_21 - 87 q_22 - 45 q_23 - 79 q_24 - 53 q_25 - 11 q_26 - 63 q_27
          - 21 q_28 - 64 q_29 - 66 q_30 - 68 q_31 - 49 q_32 - 44 q_33 - 51 q_34
          - 70 q_35 - 17 q_36 - 35 q_37 - 28 q_38 - q_39 - 11 q_40 - 13 q_41
          - 69 q_42 - 86 q_43 - 33 q_44 - 68 q_45 - 5 q_46 - 80 q_47 - 21 q_48
          - 45 q_49 - 7 q_50 - 69 q_51 - 88 q_52 - 89 q_53 - 71 q_54 - 92 q_55
          - 4 q_56 - 30 q_57 - 38 q_58 - 7 q_59 - 76 q_60 - 34 q_61 - 51 q_62
          - 67 q_63 - 89 q_64 - 86 q_65 - 8 q_66 - 22 q_67 - 9 q_68 - 89 q_69
          - 74 q_70 - 40 q_71 - 99 q_72 - 84 q_73 - 62 q_74 - 19 q_75 - 18 q_76
          - 11 q_77 - 55 q_78 - 62 q_79 - 43 q_80 - 83 q_81 - 46 q_82 - 21 q_83
          - 32 q_84 - 39 q_85 - 30 q_86 - 36 q_87 - 76 q_88 - 24 q_89 - 23 q_90
          - 57 q_91 - 15 q_92 - 60 q_93 - 32 q_94 - 70 q_95 - 65 q_96 - 24 q_97
          - 38 q_98 - 100 q_99 - 2 q_100 - 45 q_101 - 65 q_102 - 53 q_103
          - 24 q_104 - 80 q_105 - 53 q_106 - 60 q_107 - 79 q_108 - 29 q_109
          - 35 q_110 - 71 q_111 - 81 q_112 - 75 q_113 - 84 q_114 - 95 q_115
          - 62 q_116 - 56 q_117 - 94 q_118 - 4 q_119 + s_c51  = -8628
 c52:     - 26 q_00 - 76 q_01 - 82 q_02 - 9 q_03 - 29 q_04 - 34 q_05 - 87 q_06
          - 83 q_07 - 43 q_08 - 5 q_09 - 40 q_10 - 14 q_11 - 64 q_12 - 69 q_13
          - 33 q_14 - 46 q_15 - 13 q_16 - 53 q_17 - 61 q_18 - 78 q_19 - 30 q_20
          - 95 q_21 - 55 q_22 - 6 q_23 - 4 q_24 - 96 q_25 - 98 q_26 - 30 q_27
          - 53 q_28 - 94 q_29 - 67 q_30 - 9 q_31 - 5 q_32 - 54 q_33 - 15 q_34
          - 92 q_35 - 85 q_36 - 48 q_37 - 89 q_38 - 15 q_39 - 11 q_40 - 8 q_41
          - 77 q_42 - 31 q_43 - 62 q_44 - 6 q_45 - 65 q_46 - 70 q_47 - 81 q_48
          - 38 q_49 - 58 q_50 - 45 q_51 - 2 q_52 - 9 q_53 - 65 q_54 - 38 q_55
          - 83 q_56 - 47 q_57 - 35 q_58 - 11 q_59 - 16 q_60 - 80 q_61 - 46 q_62
          - 41 q_63 - 94 q_64 - 76 q_65 - 43 q_66 - 12 q_67 - 92 q_68 - 16 q_69
          - 60 q_70 - 59 q_71 - 69 q_72 - 25 q_73 - 43 q_74 - 60 q_75 - 72 q_76
          - 87 q_77 - 81 q_78 - 45 q_79 - 12 q_80 - q_81 - 26 q_82 - 73 q_83
          - 13 q_84 - 38 q_85 - 55 q_86 - 78 q_87 - 20 q_88 - 47 q_89 - 32 q_90
          - 45 q_91 - 73 q_92 - 92 q_93 - 74 q_94 - 40 q_95 - 57 q_96 - 90 q_97
          - 100 q_98 - 93 q_99 - 14 q_100 - 39 q_101 - 62 q_102 - 44 q_103
          - 52 q_104 - 31 q_105 - 46 q_106 - 75 q_107 - 32 q_108 - 10 q_109
          - 75 q_110 - 100 q_111 - 65 q_112 - 44 q_113 - 30 q_114 - 87 q_115
          - 75 q_116 - 8 q_117 - 44 q_118 - 96 q_119 + s_c52  = -9133
 c53:     - 33 q_00 - 36 q_01 - 36 q_02 - 71 q_03 - 10 q_04 - 74 q_05 - 23 q_06
          - 36 q_07 - 14 q_08 - 29 q_09 - 19 q_10 - 44 q_11 - 99 q_12 - 85 q_13
          - 75 q_14 - 49 q_15 - 94 q_16 - 19 q_17 - 94 q_18 - 71 q_19 - 95 q_20
          - 73 q_21 - 33 q_22 - 99 q_23 - 78 q_24 - 81 q_25 - 42 q_26 - 65 q_27
          - 8 q_28 - 5 q_29 - 75 q_30 - 29 q_31 - 39 q_32 - 96 q_33 - 38 q_34
          - 59 q_35 - 58 q_36 - 50 q_37 - 64 q_38 - 92 q_39 - 52 q_40 - 67 q_41
          - 37 q_42 - 54 q_43 - 45 q_44 - 3 q_45 - 11 q_46 - 25 q_47 - 24 q_48
          - 67 q_49 - 70 q_50 - 57 q_51 - 9 q_52 - 10 q_53 - 43 q_54 - 71 q_55
          - 70 q_56 - 42 q_57 - 8 q_58 - 31 q_59 - 20 q_60 - 63 q_61 - 48 q_62
          - 71 q_63 - 80 q_64 - 16 q_65 - 63 q_66 - 3 q_67 - 49 q_68 - 22 q_69
          - 21 q_70 - 97 q_71 - 33 q_72 - 46 q_73 - 25 q_74 - 79 q_75 - 52 q_76
          - 17 q_77 - 90 q_78 - 30 q_79 - 39 q_80 - 71 q_81 - 82 q_82 - 8 q_83
          - 87 q_84 - 25 q_85 - 6 q_86 - 33 q_87 - 34 q_88 - 35 q_89 - 81 q_90
          - 46 q_91 - 65 q_92 - 78 q_93 - 44 q_94 - 28 q_95 - 75 q_96 - 34 q_97
          - 9 q_98 - 2 q_99 - 70 q_100 - 47 q_101 - 23 q_102 - 12 q_103
          - 29 q_104 - 35 q_105 - 20 q_106 - 39 q_107 - 78 q_108 - 72 q_109
          - 29 q_110 - 39 q_111 - 27 q_112 - 3 q_113 - 54 q_114 - 37 q_115
          - 7 q_116 - 37 q_117 - 22 q_118 - 94 q_119 + s_c53  = -8823
 c54:     - 61 q_00 - 92 q_01 - 81 q_02 - 44 q_03 - 97 q_04 - 9 q_05 - 13 q_06
          - 38 q_07 - 31 q_08 - 55 q_09 - 43 q_10 - 89 q_11 - 25 q_12 - 63 q_13
          - 84 q_14 - 55 q_15 - 2 q_16 - 40 q_17 - 40 q_18 - 71 q_19 - 47 q_20
          - 40 q_21 - 94 q_22 - q_23 - 99 q_24 - 73 q_25 - 19 q_26 - 17 q_27
          - 78 q_28 - 86 q_29 - 82 q_30 - 56 q_31 - 81 q_32 - 8 q_33 - 69 q_34
          - 75 q_35 - 76 q_36 - 97 q_37 - 17 q_38 - 49 q_39 - 20 q_40 - 15 q_41
          - 83 q_42 - 66 q_43 - 24 q_44 - 28 q_45 - 95 q_46 - 82 q_47 - 80 q_48
          - 80 q_49 - q_50 - 30 q_51 - 24 q_52 - 31 q_53 - 78 q_54 - 85 q_55
          - 84 q_56 - 47 q_57 - 68 q_58 - 30 q_59 - 76 q_60 - 60 q_61 - 42 q_62
          - 77 q_63 - 98 q_64 - 58 q_65 - 36 q_66 - 6 q_67 - 47 q_68 - 51 q_69
          - 5 q_70 - 65 q_71 - 60 q_72 - 16 q_73 - 6 q_74 - 27 q_75 - 38 q_76
          - 67 q_77 - 48 q_78 - 29 q_79 - 65 q_80 - 34 q_81 - 43 q_82 - 30 q_83
          - 72 q_84 - 51 q_85 - 80 q_86 - 88 q_87 - 36 q_88 - 9 q_89 - 80 q_90
          - 97 q_91 - 84 q_92 - 61 q_93 - 92 q_94 - 89 q_95 - 93 q_96 - 72 q_97
          - 6 q_98 - 62 q_99 - 22 q_100 - 67 q_101 - 94 q_102 - 89 q_103
          - 67 q_104 - 96 q_105 - 38 q_106 - 22 q_107 - 2 q_108 - 90 q_109
          - 56 q_110 - 61 q_111 - 13 q_112 - 23 q_113 - 4 q_114 - 56 q_115
          - 37 q_116 - 7 q_117 - 62 q_118 - 18 q_119 + s_c54  = -9324
 c55:     - 67 q_00 - 82 q_01 - 7 q_02 - 47 q_03 - 99 q_04 - 74 q_05 - 18 q_06
          - 93 q_07 - 80 q_08 - 62 q_09 - 7 q_10 - 71 q_11 - 7 q_12 - 37 q_13
          - 97 q_14 - 96 q_15 - 72 q_16 - 92 q_17 - 60 q_18 - 100 q_19
          - 13 q_20 - 71 q_21 - 88 q_22 - 2 q_23 - 53 q_24 - 21 q_25 - 9 q_26
          - 98 q_27 - 43 q_28 - 44 q_29 - 85 q_30 - 88 q_31 - 67 q_32 - 91 q_33
          - 92 q_34 - 98 q_35 - 8 q_36 - 33 q_37 - 27 q_38 - 58 q_39 - 98 q_40
          - 49 q_41 - 88 q_42 - 59 q_43 - 89 q_44 - 6 q_45 - 33 q_46 - 20 q_47
          - 97 q_48 - 21 q_49 - 98 q_50 - 68 q_51 - 4 q_52 - 29 q_53 - 50 q_54
          - 16 q_55 - 17 q_56 - 73 q_57 - 31 q_58 - 9 q_59 - 35 q_60 - 30 q_61
          - 98 q_62 - 81 q_63 - 32 q_64 - 41 q_65 - 29 q_66 - 39 q_67 - 27 q_68
          - 41 q_69 - 3 q_70 - 95 q_71 - 29 q_72 - 80 q_73 - 6 q_74 - 48 q_75
          - 17 q_76 - 30 q_77 - 28 q_78 - 69 q_79 - 25 q_80 - 62 q_81 - 73 q_82
          - 34 q_83 - 55 q_84 - 48 q_85 - 98 q_86 - 92 q_87 - 60 q_88 - 96 q_89
          - 79 q_90 - 66 q_91 - 90 q_92 - 62 q_93 - 81 q_94 - 45 q_95 - 72 q_96
          - 84 q_97 - 53 q_98 - 45 q_99 - 4 q_100 - 62 q_101 - 27 q_102
          - 71 q_103 - 22 q_104 - 100 q_105 - 86 q_106 - 55 q_107 - 68 q_108
          - 60 q_109 - 25 q_110 - 10 q_111 - 85 q_112 - 12 q_113 - 4 q_114
          - 16 q_115 - 51 q_116 - 35 q_117 - 42 q_118 - 58 q_119 + s_c55
           = -9313
 ybd_0:   q_00 + s_q_00  = 1
 ybd_1:   q_01 + s_q_01  = 1
 ybd_2:   q_02 + s_q_02  = 1
 ybd_3:   q_03 + s_q_03  = 1
 ybd_4:   q_04 + s_q_04  = 1
 ybd_5:   q_05 + s_q_05  = 1
 ybd_6:   q_06 + s_q_06  = 1
 ybd_7:   q_07 + s_q_07  = 1
 ybd_8:   q_08 + s_q_08  = 1
 ybd_9:   q_09 + s_q_09  = 1
 ybd_10:  q_10 + s_q_10  = 1
 ybd_11:  q_11 + s_q_11  = 1
 ybd_12:  q_12 + s_q_12  = 1
 ybd_13:  q_13 + s_q_13  = 1
 ybd_14:  q_14 + s_q_14  = 1
 ybd_15:  q_15 + s_q_15  = 1
 ybd_16:  q_16 + s_q_16  = 1
 ybd_17:  q_17 + s_q_17  = 1
 ybd_18:  q_18 + s_q_18  = 1
 ybd_19:  q_19 + s_q_19  = 1
 ybd_20:  q_20 + s_q_20  = 1
 ybd_21:  q_21 + s_q_21  = 1
 ybd_22:  q_22 + s_q_22  = 1
 ybd_23:  q_23 + s_q_23  = 1
 ybd_24:  q_24 + s_q_24  = 1
 ybd_25:  q_25 + s_q_25  = 1
 ybd_26:  q_26 + s_q_26  = 1
 ybd_27:  q_27 + s_q_27  = 1
 ybd_28:  q_28 + s_q_28  = 1
 ybd_29:  q_29 + s_q_29  = 1
 ybd_30:  q_30 + s_q_30  = 1
 ybd_31:  q_31 + s_q_31  = 1
 ybd_32:  q_32 + s_q_32  = 1
 ybd_33:  q_33 + s_q_33  = 1
 ybd_34:  q_34 + s_q_34  = 1
 ybd_35:  q_35 + s_q_35  = 1
 ybd_36:  q_36 + s_q_36  = 1
 ybd_37:  q_37 + s_q_37  = 1
 ybd_38:  q_38 + s_q_38  = 1
 ybd_39:  q_39 + s_q_39  = 1
 ybd_40:  q_40 + s_q_40  = 1
 ybd_41:  q_41 + s_q_41  = 1
 ybd_42:  q_42 + s_q_42  = 1
 ybd_43:  q_43 + s_q_43  = 1
 ybd_44:  q_44 + s_q_44  = 1
 ybd_45:  q_45 + s_q_45  = 1
 ybd_46:  q_46 + s_q_46  = 1
 ybd_47:  q_47 + s_q_47  = 1
 ybd_48:  q_48 + s_q_48  = 1
 ybd_49:  q_49 + s_q_49  = 1
 ybd_50:  q_50 + s_q_50  = 1
 ybd_51:  q_51 + s_q_51  = 1
 ybd_52:  q_52 + s_q_52  = 1
 ybd_53:  q_53 + s_q_53  = 1
 ybd_54:  q_54 + s_q_54  = 1
 ybd_55:  q_55 + s_q_55  = 1
 ybd_56:  q_56 + s_q_56  = 1
 ybd_57:  q_57 + s_q_57  = 1
 ybd_58:  q_58 + s_q_58  = 1
 ybd_59:  q_59 + s_q_59  = 1
 ybd_60:  q_60 + s_q_60  = 1
 ybd_61:  q_61 + s_q_61  = 1
 ybd_62:  q_62 + s_q_62  = 1
 ybd_63:  q_63 + s_q_63  = 1
 ybd_64:  q_64 + s_q_64  = 1
 ybd_65:  q_65 + s_q_65  = 1
 ybd_66:  q_66 + s_q_66  = 1
 ybd_67:  q_67 + s_q_67  = 1
 ybd_68:  q_68 + s_q_68  = 1
 ybd_69:  q_69 + s_q_69  = 1
 ybd_70:  q_70 + s_q_70  = 1
 ybd_71:  q_71 + s_q_71  = 1
 ybd_72:  q_72 + s_q_72  = 1
 ybd_73:  q_73 + s_q_73  = 1
 ybd_74:  q_74 + s_q_74  = 1
 ybd_75:  q_75 + s_q_75  = 1
 ybd_76:  q_76 + s_q_76  = 1
 ybd_77:  q_77 + s_q_77  = 1
 ybd_78:  q_78 + s_q_78  = 1
 ybd_79:  q_79 + s_q_79  = 1
 ybd_80:  q_80 + s_q_80  = 1
 ybd_81:  q_81 + s_q_81  = 1
 ybd_82:  q_82 + s_q_82  = 1
 ybd_83:  q_83 + s_q_83  = 1
 ybd_84:  q_84 + s_q_84  = 1
 ybd_85:  q_85 + s_q_85  = 1
 ybd_86:  q_86 + s_q_86  = 1
 ybd_87:  q_87 + s_q_87  = 1
 ybd_88:  q_88 + s_q_88  = 1
 ybd_89:  q_89 + s_q_89  = 1
 ybd_90:  q_90 + s_q_90  = 1
 ybd_91:  q_91 + s_q_91  = 1
 ybd_92:  q_92 + s_q_92  = 1
 ybd_93:  q_93 + s_q_93  = 1
 ybd_94:  q_94 + s_q_94  = 1
 ybd_95:  q_95 + s_q_95  = 1
 ybd_96:  q_96 + s_q_96  = 1
 ybd_97:  q_97 + s_q_97  = 1
 ybd_98:  q_98 + s_q_98  = 1
 ybd_99:  q_99 + s_q_99  = 1
 ybd_100: q_100 + s_q_100  = 1
 ybd_101: q_101 + s_q_101  = 1
 ybd_102: q_102 + s_q_102  = 1
 ybd_103: q_103 + s_q_103  = 1
 ybd_104: q_104 + s_q_104  = 1
 ybd_105: q_105 + s_q_105  = 1
 ybd_106: q_106 + s_q_106  = 1
 ybd_107: q_107 + s_q_107  = 1
 ybd_108: q_108 + s_q_108  = 1
 ybd_109: q_109 + s_q_109  = 1
 ybd_110: q_110 + s_q_110  = 1
 ybd_111: q_111 + s_q_111  = 1
 ybd_112: q_112 + s_q_112  = 1
 ybd_113: q_113 + s_q_113  = 1
 ybd_114: q_114 + s_q_114  = 1
 ybd_115: q_115 + s_q_115  = 1
 ybd_116: q_116 + s_q_116  = 1
 ybd_117: q_117 + s_q_117  = 1
 ybd_118: q_118 + s_q_118  = 1
 ybd_119: q_119 + s_q_119  = 1
Bounds
      y0 Free
End
